\ LP format - for model browsing. Use MPS format to capture full model detail.
Maximize
  x_0 + x_1 + x_2 + x_3 + x_4 + x_5 + x_6 + x_7 + x_8 + x_9
Subject To
 R0: x_0 + x_1 <= 1
 R1: x_0 + x_5 <= 1
 R2: x_0 + x_4 <= 1
 R3: x_1 + x_2 <= 1
 R4: x_1 + x_6 <= 1
 R5: x_2 + x_3 <= 1
 R6: x_2 + x_7 <= 1
 R7: x_3 + x_4 <= 1
 R8: x_3 + x_8 <= 1
 R9: x_4 + x_9 <= 1
 R10: x_5 + x_7 <= 1
 R11: x_5 + x_8 <= 1
 R12: x_6 + x_8 <= 1
 R13: x_6 + x_9 <= 1
 R14: x_7 + x_9 <= 1
Bounds
End
